100
1000
625
622
620
609
604
601
597
582
582
574
572
570
544
542
537
537
535
530
523
507
485
483
480
456
447
447
444
439
429
426
425
414
412
406
406
401
397
394
378
367
364
360
341
327
324
321
314
307
297
291
289
272
270
267
263
236
231
230
227
227
226
225
219
215
215
212
211
205
178
176
170
149
145
139
138
138
135
129
122
115
114
108
108
105
87
86
85
83
81
69
68
67
58
56
55
51
45
41
40
37
